
Gurobi 11.0.2 (win64) logging started Mon Aug 19 08:57:56 2024

Set parameter LogFile to value "D:\Documenti\Scuola\Laurea magistrale unibs\laurea-unibs-mkfsp\output\2024-08-19T06_36_50.601237\logs\instance03_bucket3.log"
Set parameter TimeLimit to value 350
Set parameter MIPGap to value 0
Gurobi Optimizer version 11.0.2 build v11.0.2rc0 (win64 - Windows 10.0 (19045.2))

CPU model: Intel(R) Core(TM) i5-4670 CPU @ 3.40GHz, instruction set [SSE2|AVX|AVX2]
Thread count: 4 physical cores, 4 logical processors, using up to 4 threads

Optimize a model with 2042 rows, 10287 columns and 110200 nonzeros
Model fingerprint: 0xc0cfd8e9
Variable types: 0 continuous, 10287 integer (10206 binary)
Coefficient statistics:
  Matrix range     [1e+00, 8e+03]
  Objective range  [6e+02, 8e+03]
  Bounds range     [1e+00, 1e+00]
  RHS range        [1e+00, 4e+05]
Found heuristic solution: objective 366654.00000
Presolve time: 0.15s
Presolved: 2042 rows, 10287 columns, 110200 nonzeros
Variable types: 0 continuous, 10287 integer (10206 binary)
Found heuristic solution: objective 406207.00000
Deterministic concurrent LP optimizer: primal and dual simplex
Showing primal log only...

Concurrent spin time: 0.00s

Solved with dual simplex

Root relaxation: objective 4.507110e+05, 621 iterations, 0.05 seconds (0.06 work units)

    Nodes    |    Current Node    |     Objective Bounds      |     Work
 Expl Unexpl |  Obj  Depth IntInf | Incumbent    BestBd   Gap | It/Node Time

H    0     0                    450711.00000 450711.000  0.00%     -    0s
     0     0 450711.000    0  459 450711.000 450711.000  0.00%     -    0s

Explored 1 nodes (621 simplex iterations) in 0.30 seconds (0.19 work units)
Thread count was 4 (of 4 available processors)

Solution count 3: 450711 406207 366654 

Optimal solution found (tolerance 0.00e+00)
Best objective 4.507110000000e+05, best bound 4.507110000000e+05, gap 0.0000%
